(set-logic HORN)
(declare-datatypes ((Nat_0 0)) (((Z_0 ) (S_0 (unS_0 Nat_0)))))
(declare-fun diseqNat_0 (Nat_0 Nat_0) Bool)
(declare-fun unS_1 (Nat_0 Nat_0) Bool)
(declare-fun isZ_0 (Nat_0) Bool)
(declare-fun isS_0 (Nat_0) Bool)
(assert (forall ((x_25 Nat_0) (x_24 Nat_0))
	(=> (= x_25 (S_0 x_24))
	    (unS_1 x_24 x_25))))
(assert (isZ_0 Z_0))
(assert (forall ((x_26 Nat_0))
	(isS_0 (S_0 x_26))))
(assert (forall ((x_27 Nat_0))
	(diseqNat_0 Z_0 (S_0 x_27))))
(assert (forall ((x_28 Nat_0))
	(diseqNat_0 (S_0 x_28) Z_0)))
(assert (forall ((x_29 Nat_0) (x_30 Nat_0))
	(=> (diseqNat_0 x_29 x_30)
	    (diseqNat_0 (S_0 x_29) (S_0 x_30)))))
(declare-fun add_0 (Nat_0 Nat_0 Nat_0) Bool)
(declare-fun minus_0 (Nat_0 Nat_0 Nat_0) Bool)
(declare-fun le_0 (Nat_0 Nat_0) Bool)
(declare-fun ge_0 (Nat_0 Nat_0) Bool)
(declare-fun lt_0 (Nat_0 Nat_0) Bool)
(declare-fun gt_0 (Nat_0 Nat_0) Bool)
(declare-fun mult_0 (Nat_0 Nat_0 Nat_0) Bool)
(declare-fun div_0 (Nat_0 Nat_0 Nat_0) Bool)
(declare-fun mod_0 (Nat_0 Nat_0 Nat_0) Bool)
(assert (forall ((y_0 Nat_0))
	(add_0 y_0 Z_0 y_0)))
(assert (forall ((x_18 Nat_0) (y_0 Nat_0) (r_0 Nat_0))
	(=> (add_0 r_0 x_18 y_0)
	    (add_0 (S_0 r_0) (S_0 x_18) y_0))))
(assert (forall ((y_0 Nat_0))
	(minus_0 Z_0 Z_0 y_0)))
(assert (forall ((x_18 Nat_0) (y_0 Nat_0) (r_0 Nat_0))
	(=> (minus_0 r_0 x_18 y_0)
	    (minus_0 (S_0 r_0) (S_0 x_18) y_0))))
(assert (forall ((y_0 Nat_0))
	(le_0 Z_0 y_0)))
(assert (forall ((x_18 Nat_0) (y_0 Nat_0))
	(=> (le_0 x_18 y_0)
	    (le_0 (S_0 x_18) (S_0 y_0)))))
(assert (forall ((y_0 Nat_0))
	(ge_0 y_0 Z_0)))
(assert (forall ((x_18 Nat_0) (y_0 Nat_0))
	(=> (ge_0 x_18 y_0)
	    (ge_0 (S_0 x_18) (S_0 y_0)))))
(assert (forall ((y_0 Nat_0))
	(lt_0 Z_0 (S_0 y_0))))
(assert (forall ((x_18 Nat_0) (y_0 Nat_0))
	(=> (lt_0 x_18 y_0)
	    (lt_0 (S_0 x_18) (S_0 y_0)))))
(assert (forall ((y_0 Nat_0))
	(gt_0 (S_0 y_0) Z_0)))
(assert (forall ((x_18 Nat_0) (y_0 Nat_0))
	(=> (gt_0 x_18 y_0)
	    (gt_0 (S_0 x_18) (S_0 y_0)))))
(assert (forall ((y_0 Nat_0))
	(mult_0 Z_0 Z_0 y_0)))
(assert (forall ((x_18 Nat_0) (y_0 Nat_0) (r_0 Nat_0) (z_1 Nat_0))
	(=>	(and (mult_0 r_0 x_18 y_0)
			(add_0 z_1 r_0 y_0))
		(mult_0 z_1 (S_0 x_18) y_0))))
(assert (forall ((x_18 Nat_0) (y_0 Nat_0))
	(=> (lt_0 x_18 y_0)
	    (div_0 Z_0 x_18 y_0))))
(assert (forall ((x_18 Nat_0) (y_0 Nat_0) (r_0 Nat_0) (z_1 Nat_0))
	(=>	(and (ge_0 x_18 y_0)
			(minus_0 z_1 x_18 y_0)
			(div_0 r_0 z_1 y_0))
		(div_0 (S_0 r_0) x_18 y_0))))
(assert (forall ((x_18 Nat_0) (y_0 Nat_0))
	(=> (lt_0 x_18 y_0)
	    (mod_0 x_18 x_18 y_0))))
(assert (forall ((x_18 Nat_0) (y_0 Nat_0) (r_0 Nat_0) (z_1 Nat_0))
	(=>	(and (ge_0 x_18 y_0)
			(minus_0 z_1 x_18 y_0)
			(mod_0 r_0 z_1 y_0))
		(mod_0 r_0 x_18 y_0))))
(declare-fun and_0 (Bool Bool Bool) Bool)
(declare-fun or_0 (Bool Bool Bool) Bool)
(declare-fun hence_0 (Bool Bool Bool) Bool)
(declare-fun not_0 (Bool Bool) Bool)
(assert (and_0 false false false))
(assert (and_0 false true false))
(assert (and_0 false false true))
(assert (and_0 true true true))
(assert (or_0 false false false))
(assert (or_0 true true false))
(assert (or_0 true false true))
(assert (or_0 true true true))
(assert (hence_0 true false false))
(assert (hence_0 false true false))
(assert (hence_0 true false true))
(assert (hence_0 true true true))
(assert (not_0 true false))
(assert (not_0 false true))
(declare-fun main_0 (Bool) Bool)
(declare-fun main_1 (Nat_0 Nat_0 Bool Bool) Bool)
(declare-fun main_2 (Bool Bool) Bool)
(assert (forall ((x_0 Bool) (x_1 Bool))
	(=> (main_1 Z_0 Z_0 x_1 x_0)
	    (main_0 x_0))))
(assert (forall ((x_2 Nat_0) (x_3 Nat_0) (x_4 Bool) (x_5 Nat_0) (x_6 Nat_0) (x_14 Bool) (x_19 Nat_0))
	(=>	(and (= x_5 x_6)
			(= x_6 (S_0 Z_0))
			(main_2 x_14 x_4)
			(lt_0 x_19 (S_0 (S_0 Z_0)))
			(not_0 x_14 true)
			(add_0 x_19 x_2 (S_0 Z_0)))
		(main_1 x_2 x_3 false x_4))))
(assert (forall ((x_2 Nat_0) (x_3 Nat_0) (x_4 Bool) (x_5 Nat_0) (x_6 Nat_0) (x_15 Bool) (x_20 Nat_0))
	(=>	(and (= x_5 x_6)
			(= x_6 (S_0 Z_0))
			(main_2 x_15 x_4)
			(ge_0 x_20 (S_0 (S_0 Z_0)))
			(not_0 x_15 false)
			(add_0 x_20 x_2 (S_0 Z_0)))
		(main_1 x_2 x_3 false x_4))))
(assert (forall ((x_7 Nat_0) (x_8 Nat_0) (x_9 Bool) (x_10 Nat_0) (x_16 Bool) (x_21 Nat_0))
	(=>	(and (= x_10 (S_0 Z_0))
			(main_2 x_16 x_9)
			(lt_0 x_21 (S_0 (S_0 Z_0)))
			(not_0 x_16 true)
			(add_0 x_21 x_10 (S_0 Z_0)))
		(main_1 x_7 x_8 true x_9))))
(assert (forall ((x_7 Nat_0) (x_8 Nat_0) (x_9 Bool) (x_10 Nat_0) (x_17 Bool) (x_22 Nat_0))
	(=>	(and (= x_10 (S_0 Z_0))
			(main_2 x_17 x_9)
			(ge_0 x_22 (S_0 (S_0 Z_0)))
			(not_0 x_17 false)
			(add_0 x_22 x_10 (S_0 Z_0)))
		(main_1 x_7 x_8 true x_9))))
(assert (forall ((x_11 Bool))
	(=> (= x_11 false)
	    (main_2 false x_11))))
(assert (forall ((x_12 Bool))
	(=> (= x_12 true)
	    (main_2 true x_12))))
(assert (forall ((x_13 Nat_0))
	(=> (main_0 true)
	    false)))
(check-sat)
